Route #1: 19 43 23 22 50 38 9 12 5
Route #2: 28 40 44 14 51 17 8 10 46
Route #3: 18 7 15 4 26 21 39 47
Route #4: 41 29 37 42 45 24 6 53
Route #5: 25 1 52 27 16 35 48
Route #6: 32 33 11 55 20 31 30 54 34 2
Route #7: 36 49 13 3
Cost 737